S = 6;
start = [|0,27,0,0,0,0,0,0,34,0,0,0,14,20,0,0,0,0,0,0,0,0,24,0,0,0,0,0,0,3,0,12,0,0,0,0|
2,0,0,8,7,4,0,6,0,0,0,5,0,0,0,0,0,0,0,0,0,0,0,0,0,0,0,19,0,15,22,0,0,0,0,0|
0,0,0,0,19,0,0,0,22,0,0,0,2,0,0,0,0,0,0,0,6,0,0,0,0,0,0,0,0,0,35,0,29,26,0,25|
0,5,11,0,0,0,0,0,8,2,0,0,0,0,0,0,0,0,0,27,0,0,0,0,0,0,0,21,0,17,0,0,0,0,19,0|
0,0,0,34,0,30,0,0,0,0,0,0,24,0,21,0,17,0,0,15,0,20,14,0,0,0,0,0,0,0,8,0,0,0,0,4|
0,17,0,0,0,0,0,0,0,0,0,0,0,0,9,6,0,11,0,0,0,0,0,0,0,0,0,0,0,0,0,0,0,0,0,0|
0,0,0,5,0,1,12,0,0,9,0,8,0,0,30,0,0,0,0,0,31,0,0,0,0,0,0,0,0,0,23,0,20,0,0,0|
0,0,0,29,0,0,0,31,35,0,34,0,0,0,0,0,14,16,0,0,0,0,0,0,1,0,0,0,0,2,0,9,0,0,12,7|
0,0,0,0,0,0,0,0,0,15,0,0,0,11,12,0,0,0,0,0,0,0,0,0,0,0,0,0,0,0,0,0,0,0,0,0|
15,0,16,0,0,0,0,0,0,0,22,20,0,0,0,0,0,0,0,0,0,11,0,0,0,0,0,0,0,26,32,0,0,0,30,0|
0,0,0,0,0,0,0,0,0,0,0,0,0,23,0,0,0,0,0,0,0,0,0,0,0,0,0,0,0,0,0,0,2,4,0,0|
0,0,0,0,12,7,0,0,0,3,0,0,0,0,0,31,0,0,30,0,25,0,0,28,19,0,0,24,0,0,17,0,14,0,18,13|
8,0,0,0,0,0,0,0,0,0,5,0,0,28,0,0,0,0,0,0,34,0,0,0,0,0,20,0,0,23,0,0,0,0,0,0|
0,0,17,0,0,22,0,24,0,0,0,0,0,0,0,0,0,5,3,0,0,4,0,0,0,0,0,0,0,0,34,0,30,0,26,0|
0,0,0,0,1,0,0,0,0,8,7,0,30,26,0,34,0,0,0,0,36,0,0,0,0,0,18,0,14,21,0,0,0,0,0,0|
30,0,29,0,0,34,0,36,0,0,0,0,0,14,0,0,0,0,0,0,0,0,0,0,0,5,0,0,0,0,0,0,0,0,0,0|
0,0,0,28,0,36,0,0,0,0,29,0,0,0,15,0,0,0,0,0,0,14,0,17,0,0,0,0,0,0,0,6,0,0,1,0|
0,0,19,0,0,0,0,0,0,0,0,0,0,0,3,0,0,0,0,0,0,0,0,0,0,0,0,36,0,0,0,32,0,0,0,0|
29,0,0,0,0,0,0,0,0,0,0,36,0,0,0,21,0,0,0,0,0,0,0,20,0,0,5,0,0,10,0,0,0,0,4,0|
0,0,0,0,0,0,0,9,1,5,0,10,0,27,0,0,0,32,0,0,0,0,0,0,0,0,19,16,0,0,0,0,0,0,0,21|
31,0,0,27,0,0,0,0,0,0,0,0,0,0,0,0,0,0,0,0,0,0,0,0,0,0,0,0,3,0,0,5,0,6,0,0|
0,0,0,0,0,23,0,21,0,0,0,0,0,0,4,0,0,0,0,0,0,0,0,0,0,0,0,0,0,31,0,34,0,0,0,0|
0,0,18,13,14,0,0,0,0,0,0,0,0,1,0,0,0,0,0,12,0,0,0,0,0,0,0,0,0,0,0,0,0,0,29,0|
5,0,6,0,2,0,0,0,0,0,0,0,0,25,0,33,0,0,0,0,0,0,0,0,0,0,0,0,0,0,0,19,0,0,0,0|
10,0,0,0,0,0,0,0,0,0,0,0,0,0,0,0,0,0,29,25,0,0,0,0,0,21,0,0,0,19,0,0,0,0,0,14|
0,13,0,0,0,0,0,0,24,0,0,0,4,0,0,0,0,0,0,7,0,12,10,0,34,0,0,0,0,0,0,0,0,0,31,0|
0,0,33,0,0,0,0,26,0,0,0,0,0,0,0,20,0,0,0,0,14,0,0,0,0,9,0,0,0,0,6,4,1,3,5,2|
4,0,3,0,0,0,11,0,0,0,0,0,0,0,29,0,0,0,0,0,0,0,0,0,0,0,16,0,0,13,0,0,0,21,0,20|
0,0,0,30,29,0,0,0,0,0,0,0,0,18,0,0,0,0,0,0,20,0,0,0,0,0,0,0,0,0,0,0,0,0,0,0|
0,19,0,0,23,0,0,0,0,0,0,0,0,0,0,0,0,9,5,0,0,0,0,0,27,0,0,0,0,0,0,0,0,0,0,0|
0,0,0,0,0,0,0,0,0,0,0,0,0,21,0,0,0,0,0,0,0,0,0,0,5,0,11,0,9,0,7,0,0,0,0,0|
0,0,0,21,0,0,0,0,0,0,0,0,0,9,0,0,0,0,8,0,0,0,0,0,35,0,0,0,0,0,0,0,0,0,0,0|
0,0,0,0,0,0,0,3,0,0,0,4,0,0,0,0,30,0,0,0,0,0,25,0,0,24,0,0,0,18,0,0,0,0,0,0|
0,28,0,0,0,0,0,0,0,0,0,0,0,0,0,0,0,14,0,0,17,0,23,0,0,0,0,0,0,0,0,0,0,0,0,0|
0,0,0,0,0,0,0,0,0,0,24,0,0,7,8,0,0,0,10,0,0,0,0,0,0,0,0,28,0,0,0,0,0,0,35,0|
0,0,0,7,0,0,0,5,0,0,0,6,25,31,0,0,28,0,0,0,29,0,0,0,0,14,0,20,0,0,0,0,0,0,0,17|];